3
40
11219
[[468,860,147,812,712, 65,478,137,170,671, 33,569,363,186,381,311,116,805,247,598,368,274,253,308,379,391,574,998,734,734, 82,517, 98, 45,468,935,298,323,873,834],
 [532,140,853,188,288,935,522,863,830,329,967,431,637,814,619,689,884,195,753,402,632,726,747,692,621,609,426,  2,266,266,918,483,902,955,532, 65,702,677,127,166],
 [ 75, 81, 44, 66, 71, 34, 35, 12, 96, 76, 50, 45, 73, 70, 89, 63, 41, 47, 47, 44, 51, 31, 16, 16, 24, 93, 59,  1, 76, 93, 43, 16, 59,  7, 44, 35, 39, 59, 10, 17]]
[184,603,737,883, 96,997,136,377,965, 54,944,605,737,466,534,824,312,717, 40,746,624,986,569,842,202,504,105,951,503,243,617,723,547,814,429,994, 68,836,533,391]